c File: flat75_3_0.col
c
c SOURCE: Joseph Culberson (joe@cs.ualberta.ca)
c DESCRIPTION: Quasi-random coloring problem
c              generated with flatness = 0
c                             probability = 0.096
c                             known coloring = 3
c                             random seed = 1020
c              Creation Date:  Wed Feb 24 10:41:52 1999
c Maximum degree = 8 Minimum degree = 1
c COLOR VERIFICATION: Using the permuted order
c under simple greedy yields the specified
c coloring number
c Color = 3 specified partitions = 3
c p edge 75 180
c cnf created by edge2cnf
p cnf 225 840
-1 -2 0
-1 -3 0
-2 -3 0
1 2 3 0
-4 -5 0
-4 -6 0
-5 -6 0
4 5 6 0
-7 -8 0
-7 -9 0
-8 -9 0
7 8 9 0
-10 -11 0
-10 -12 0
-11 -12 0
10 11 12 0
-13 -14 0
-13 -15 0
-14 -15 0
13 14 15 0
-16 -17 0
-16 -18 0
-17 -18 0
16 17 18 0
-19 -20 0
-19 -21 0
-20 -21 0
19 20 21 0
-22 -23 0
-22 -24 0
-23 -24 0
22 23 24 0
-25 -26 0
-25 -27 0
-26 -27 0
25 26 27 0
-28 -29 0
-28 -30 0
-29 -30 0
28 29 30 0
-31 -32 0
-31 -33 0
-32 -33 0
31 32 33 0
-34 -35 0
-34 -36 0
-35 -36 0
34 35 36 0
-37 -38 0
-37 -39 0
-38 -39 0
37 38 39 0
-40 -41 0
-40 -42 0
-41 -42 0
40 41 42 0
-43 -44 0
-43 -45 0
-44 -45 0
43 44 45 0
-46 -47 0
-46 -48 0
-47 -48 0
46 47 48 0
-49 -50 0
-49 -51 0
-50 -51 0
49 50 51 0
-52 -53 0
-52 -54 0
-53 -54 0
52 53 54 0
-55 -56 0
-55 -57 0
-56 -57 0
55 56 57 0
-58 -59 0
-58 -60 0
-59 -60 0
58 59 60 0
-61 -62 0
-61 -63 0
-62 -63 0
61 62 63 0
-64 -65 0
-64 -66 0
-65 -66 0
64 65 66 0
-67 -68 0
-67 -69 0
-68 -69 0
67 68 69 0
-70 -71 0
-70 -72 0
-71 -72 0
70 71 72 0
-73 -74 0
-73 -75 0
-74 -75 0
73 74 75 0
-76 -77 0
-76 -78 0
-77 -78 0
76 77 78 0
-79 -80 0
-79 -81 0
-80 -81 0
79 80 81 0
-82 -83 0
-82 -84 0
-83 -84 0
82 83 84 0
-85 -86 0
-85 -87 0
-86 -87 0
85 86 87 0
-88 -89 0
-88 -90 0
-89 -90 0
88 89 90 0
-91 -92 0
-91 -93 0
-92 -93 0
91 92 93 0
-94 -95 0
-94 -96 0
-95 -96 0
94 95 96 0
-97 -98 0
-97 -99 0
-98 -99 0
97 98 99 0
-100 -101 0
-100 -102 0
-101 -102 0
100 101 102 0
-103 -104 0
-103 -105 0
-104 -105 0
103 104 105 0
-106 -107 0
-106 -108 0
-107 -108 0
106 107 108 0
-109 -110 0
-109 -111 0
-110 -111 0
109 110 111 0
-112 -113 0
-112 -114 0
-113 -114 0
112 113 114 0
-115 -116 0
-115 -117 0
-116 -117 0
115 116 117 0
-118 -119 0
-118 -120 0
-119 -120 0
118 119 120 0
-121 -122 0
-121 -123 0
-122 -123 0
121 122 123 0
-124 -125 0
-124 -126 0
-125 -126 0
124 125 126 0
-127 -128 0
-127 -129 0
-128 -129 0
127 128 129 0
-130 -131 0
-130 -132 0
-131 -132 0
130 131 132 0
-133 -134 0
-133 -135 0
-134 -135 0
133 134 135 0
-136 -137 0
-136 -138 0
-137 -138 0
136 137 138 0
-139 -140 0
-139 -141 0
-140 -141 0
139 140 141 0
-142 -143 0
-142 -144 0
-143 -144 0
142 143 144 0
-145 -146 0
-145 -147 0
-146 -147 0
145 146 147 0
-148 -149 0
-148 -150 0
-149 -150 0
148 149 150 0
-151 -152 0
-151 -153 0
-152 -153 0
151 152 153 0
-154 -155 0
-154 -156 0
-155 -156 0
154 155 156 0
-157 -158 0
-157 -159 0
-158 -159 0
157 158 159 0
-160 -161 0
-160 -162 0
-161 -162 0
160 161 162 0
-163 -164 0
-163 -165 0
-164 -165 0
163 164 165 0
-166 -167 0
-166 -168 0
-167 -168 0
166 167 168 0
-169 -170 0
-169 -171 0
-170 -171 0
169 170 171 0
-172 -173 0
-172 -174 0
-173 -174 0
172 173 174 0
-175 -176 0
-175 -177 0
-176 -177 0
175 176 177 0
-178 -179 0
-178 -180 0
-179 -180 0
178 179 180 0
-181 -182 0
-181 -183 0
-182 -183 0
181 182 183 0
-184 -185 0
-184 -186 0
-185 -186 0
184 185 186 0
-187 -188 0
-187 -189 0
-188 -189 0
187 188 189 0
-190 -191 0
-190 -192 0
-191 -192 0
190 191 192 0
-193 -194 0
-193 -195 0
-194 -195 0
193 194 195 0
-196 -197 0
-196 -198 0
-197 -198 0
196 197 198 0
-199 -200 0
-199 -201 0
-200 -201 0
199 200 201 0
-202 -203 0
-202 -204 0
-203 -204 0
202 203 204 0
-205 -206 0
-205 -207 0
-206 -207 0
205 206 207 0
-208 -209 0
-208 -210 0
-209 -210 0
208 209 210 0
-211 -212 0
-211 -213 0
-212 -213 0
211 212 213 0
-214 -215 0
-214 -216 0
-215 -216 0
214 215 216 0
-217 -218 0
-217 -219 0
-218 -219 0
217 218 219 0
-220 -221 0
-220 -222 0
-221 -222 0
220 221 222 0
-223 -224 0
-223 -225 0
-224 -225 0
223 224 225 0
-25 -1 0
-26 -2 0
-27 -3 0
-61 -1 0
-62 -2 0
-63 -3 0
-166 -1 0
-167 -2 0
-168 -3 0
-46 -4 0
-47 -5 0
-48 -6 0
-55 -4 0
-56 -5 0
-57 -6 0
-139 -4 0
-140 -5 0
-141 -6 0
-172 -4 0
-173 -5 0
-174 -6 0
-178 -4 0
-179 -5 0
-180 -6 0
-193 -4 0
-194 -5 0
-195 -6 0
-25 -7 0
-26 -8 0
-27 -9 0
-34 -7 0
-35 -8 0
-36 -9 0
-67 -7 0
-68 -8 0
-69 -9 0
-91 -7 0
-92 -8 0
-93 -9 0
-112 -7 0
-113 -8 0
-114 -9 0
-154 -7 0
-155 -8 0
-156 -9 0
-181 -7 0
-182 -8 0
-183 -9 0
-184 -7 0
-185 -8 0
-186 -9 0
-16 -10 0
-17 -11 0
-18 -12 0
-25 -10 0
-26 -11 0
-27 -12 0
-40 -10 0
-41 -11 0
-42 -12 0
-49 -10 0
-50 -11 0
-51 -12 0
-118 -10 0
-119 -11 0
-120 -12 0
-34 -13 0
-35 -14 0
-36 -15 0
-115 -13 0
-116 -14 0
-117 -15 0
-136 -13 0
-137 -14 0
-138 -15 0
-142 -13 0
-143 -14 0
-144 -15 0
-214 -13 0
-215 -14 0
-216 -15 0
-115 -16 0
-116 -17 0
-117 -18 0
-139 -16 0
-140 -17 0
-141 -18 0
-220 -16 0
-221 -17 0
-222 -18 0
-52 -19 0
-53 -20 0
-54 -21 0
-94 -19 0
-95 -20 0
-96 -21 0
-172 -19 0
-173 -20 0
-174 -21 0
-205 -19 0
-206 -20 0
-207 -21 0
-115 -22 0
-116 -23 0
-117 -24 0
-127 -22 0
-128 -23 0
-129 -24 0
-136 -22 0
-137 -23 0
-138 -24 0
-166 -22 0
-167 -23 0
-168 -24 0
-202 -25 0
-203 -26 0
-204 -27 0
-58 -28 0
-59 -29 0
-60 -30 0
-88 -28 0
-89 -29 0
-90 -30 0
-94 -28 0
-95 -29 0
-96 -30 0
-136 -28 0
-137 -29 0
-138 -30 0
-151 -28 0
-152 -29 0
-153 -30 0
-73 -31 0
-74 -32 0
-75 -33 0
-139 -31 0
-140 -32 0
-141 -33 0
-151 -31 0
-152 -32 0
-153 -33 0
-202 -31 0
-203 -32 0
-204 -33 0
-205 -31 0
-206 -32 0
-207 -33 0
-220 -31 0
-221 -32 0
-222 -33 0
-70 -34 0
-71 -35 0
-72 -36 0
-130 -34 0
-131 -35 0
-132 -36 0
-172 -34 0
-173 -35 0
-174 -36 0
-73 -37 0
-74 -38 0
-75 -39 0
-157 -37 0
-158 -38 0
-159 -39 0
-166 -37 0
-167 -38 0
-168 -39 0
-169 -37 0
-170 -38 0
-171 -39 0
-172 -37 0
-173 -38 0
-174 -39 0
-202 -37 0
-203 -38 0
-204 -39 0
-121 -40 0
-122 -41 0
-123 -42 0
-160 -40 0
-161 -41 0
-162 -42 0
-175 -40 0
-176 -41 0
-177 -42 0
-55 -43 0
-56 -44 0
-57 -45 0
-91 -43 0
-92 -44 0
-93 -45 0
-169 -43 0
-170 -44 0
-171 -45 0
-187 -43 0
-188 -44 0
-189 -45 0
-118 -49 0
-119 -50 0
-120 -51 0
-148 -49 0
-149 -50 0
-150 -51 0
-196 -49 0
-197 -50 0
-198 -51 0
-82 -52 0
-83 -53 0
-84 -54 0
-88 -52 0
-89 -53 0
-90 -54 0
-121 -52 0
-122 -53 0
-123 -54 0
-157 -52 0
-158 -53 0
-159 -54 0
-166 -52 0
-167 -53 0
-168 -54 0
-181 -52 0
-182 -53 0
-183 -54 0
-154 -55 0
-155 -56 0
-156 -57 0
-139 -61 0
-140 -62 0
-141 -63 0
-142 -61 0
-143 -62 0
-144 -63 0
-178 -61 0
-179 -62 0
-180 -63 0
-217 -61 0
-218 -62 0
-219 -63 0
-94 -64 0
-95 -65 0
-96 -66 0
-109 -64 0
-110 -65 0
-111 -66 0
-133 -64 0
-134 -65 0
-135 -66 0
-172 -64 0
-173 -65 0
-174 -66 0
-223 -64 0
-224 -65 0
-225 -66 0
-70 -67 0
-71 -68 0
-72 -69 0
-178 -67 0
-179 -68 0
-180 -69 0
-193 -67 0
-194 -68 0
-195 -69 0
-217 -67 0
-218 -68 0
-219 -69 0
-223 -67 0
-224 -68 0
-225 -69 0
-115 -70 0
-116 -71 0
-117 -72 0
-124 -70 0
-125 -71 0
-126 -72 0
-172 -70 0
-173 -71 0
-174 -72 0
-103 -73 0
-104 -74 0
-105 -75 0
-190 -73 0
-191 -74 0
-192 -75 0
-196 -73 0
-197 -74 0
-198 -75 0
-202 -73 0
-203 -74 0
-204 -75 0
-112 -76 0
-113 -77 0
-114 -78 0
-169 -76 0
-170 -77 0
-171 -78 0
-172 -76 0
-173 -77 0
-174 -78 0
-211 -76 0
-212 -77 0
-213 -78 0
-223 -76 0
-224 -77 0
-225 -78 0
-115 -79 0
-116 -80 0
-117 -81 0
-193 -79 0
-194 -80 0
-195 -81 0
-211 -79 0
-212 -80 0
-213 -81 0
-133 -82 0
-134 -83 0
-135 -84 0
-139 -82 0
-140 -83 0
-141 -84 0
-157 -82 0
-158 -83 0
-159 -84 0
-163 -82 0
-164 -83 0
-165 -84 0
-106 -85 0
-107 -86 0
-108 -87 0
-112 -85 0
-113 -86 0
-114 -87 0
-118 -85 0
-119 -86 0
-120 -87 0
-130 -85 0
-131 -86 0
-132 -87 0
-142 -85 0
-143 -86 0
-144 -87 0
-145 -85 0
-146 -86 0
-147 -87 0
-151 -85 0
-152 -86 0
-153 -87 0
-160 -85 0
-161 -86 0
-162 -87 0
-130 -88 0
-131 -89 0
-132 -90 0
-142 -88 0
-143 -89 0
-144 -90 0
-163 -88 0
-164 -89 0
-165 -90 0
-187 -88 0
-188 -89 0
-189 -90 0
-127 -91 0
-128 -92 0
-129 -93 0
-205 -91 0
-206 -92 0
-207 -93 0
-97 -94 0
-98 -95 0
-99 -96 0
-139 -97 0
-140 -98 0
-141 -99 0
-163 -97 0
-164 -98 0
-165 -99 0
-136 -100 0
-137 -101 0
-138 -102 0
-151 -100 0
-152 -101 0
-153 -102 0
-208 -100 0
-209 -101 0
-210 -102 0
-121 -103 0
-122 -104 0
-123 -105 0
-133 -103 0
-134 -104 0
-135 -105 0
-169 -103 0
-170 -104 0
-171 -105 0
-199 -103 0
-200 -104 0
-201 -105 0
-223 -103 0
-224 -104 0
-225 -105 0
-148 -106 0
-149 -107 0
-150 -108 0
-196 -106 0
-197 -107 0
-198 -108 0
-199 -106 0
-200 -107 0
-201 -108 0
-154 -109 0
-155 -110 0
-156 -111 0
-187 -112 0
-188 -113 0
-189 -114 0
-130 -115 0
-131 -116 0
-132 -117 0
-148 -118 0
-149 -119 0
-150 -120 0
-223 -121 0
-224 -122 0
-225 -123 0
-139 -124 0
-140 -125 0
-141 -126 0
-142 -124 0
-143 -125 0
-144 -126 0
-148 -124 0
-149 -125 0
-150 -126 0
-151 -130 0
-152 -131 0
-153 -132 0
-175 -130 0
-176 -131 0
-177 -132 0
-199 -130 0
-200 -131 0
-201 -132 0
-136 -133 0
-137 -134 0
-138 -135 0
-157 -133 0
-158 -134 0
-159 -135 0
-181 -133 0
-182 -134 0
-183 -135 0
-172 -136 0
-173 -137 0
-174 -138 0
-145 -139 0
-146 -140 0
-147 -141 0
-184 -142 0
-185 -143 0
-186 -144 0
-187 -145 0
-188 -146 0
-189 -147 0
-196 -145 0
-197 -146 0
-198 -147 0
-166 -148 0
-167 -149 0
-168 -150 0
-181 -148 0
-182 -149 0
-183 -150 0
-163 -151 0
-164 -152 0
-165 -153 0
-178 -154 0
-179 -155 0
-180 -156 0
-217 -154 0
-218 -155 0
-219 -156 0
-193 -157 0
-194 -158 0
-195 -159 0
-217 -157 0
-218 -158 0
-219 -159 0
-163 -160 0
-164 -161 0
-165 -162 0
-169 -160 0
-170 -161 0
-171 -162 0
-211 -160 0
-212 -161 0
-213 -162 0
-193 -163 0
-194 -164 0
-195 -165 0
-217 -163 0
-218 -164 0
-219 -165 0
-169 -166 0
-170 -167 0
-171 -168 0
-181 -166 0
-182 -167 0
-183 -168 0
-217 -169 0
-218 -170 0
-219 -171 0
-196 -184 0
-197 -185 0
-198 -186 0
-211 -184 0
-212 -185 0
-213 -186 0
-205 -187 0
-206 -188 0
-207 -189 0
-217 -190 0
-218 -191 0
-219 -192 0
-205 -202 0
-206 -203 0
-207 -204 0
-214 -202 0
-215 -203 0
-216 -204 0
-217 -202 0
-218 -203 0
-219 -204 0
-211 -208 0
-212 -209 0
-213 -210 0
-223 -214 0
-224 -215 0
-225 -216 0
